Primitive Cell                          
   1.00000000000000     
     0.0000000000000000    1.9920604209065118    1.9920604209065118
     1.9920604209065118    0.0000000000000000    1.9920604209065118
     1.9920604209065118    1.9920604209065118    0.0000000000000000
   Al
     1
Direct
  0.0037649460434473 -0.0037649460434473 -0.0037649460434473
 
  0.00000000E+00  0.00000000E+00  0.00000000E+00
