Repeated-UnitCell:     3    3    1      
   1.00000000000000     
     7.3375109926795172    0.0000000000000000    0.0000000000000000
    -3.6687554963397586    6.3544709204423864    0.0000000000000000
     0.0000000000000000    0.0000000000000000   15.0000000000000000
   C 
    18
Direct
  0.0000000000000000  0.0000000000000000  0.2500000000000000
  0.3333333432674408  0.0000000000000000  0.2500000000000000
  0.6666666865348816  0.0000000000000000  0.2500000000000000
  0.0000000000000000  0.3333333432674408  0.2500000000000000
  0.3333333432674408  0.3333333432674408  0.2500000000000000
  0.6666666865348816  0.3333333432674408  0.2500000000000000
  0.0000000000000000  0.6666666865348816  0.2500000000000000
  0.3333333432674408  0.6666666865348816  0.2500000000000000
  0.6666666865348816  0.6666666865348816  0.2500000000000000
  0.1111111143333332  0.2222222290000033  0.2500000000000000
  0.4444444576007740  0.2222222290000033  0.2500000000000000
  0.7777778008682148  0.2222222290000033  0.2500000000000000
  0.1111111143333332  0.5555555722674441  0.2500000000000000
  0.4444444576007740  0.5555555722674441  0.2500000000000000
  0.7777778008682148  0.5555555722674441  0.2500000000000000
  0.1111111143333332  0.8888889155348849  0.2500000000000000
  0.4444444576007740  0.8888889155348849  0.2500000000000000
  0.7777778008682148  0.8888889155348849  0.2500000000000000
 
  0.00000000E+00  0.00000000E+00  0.00000000E+00
  0.00000000E+00  0.00000000E+00  0.00000000E+00
  0.00000000E+00  0.00000000E+00  0.00000000E+00
  0.00000000E+00  0.00000000E+00  0.00000000E+00
  0.00000000E+00  0.00000000E+00  0.00000000E+00
  0.00000000E+00  0.00000000E+00  0.00000000E+00
  0.00000000E+00  0.00000000E+00  0.00000000E+00
  0.00000000E+00  0.00000000E+00  0.00000000E+00
  0.00000000E+00  0.00000000E+00  0.00000000E+00
  0.00000000E+00  0.00000000E+00  0.00000000E+00
  0.00000000E+00  0.00000000E+00  0.00000000E+00
  0.00000000E+00  0.00000000E+00  0.00000000E+00
  0.00000000E+00  0.00000000E+00  0.00000000E+00
  0.00000000E+00  0.00000000E+00  0.00000000E+00
  0.00000000E+00  0.00000000E+00  0.00000000E+00
  0.00000000E+00  0.00000000E+00  0.00000000E+00
  0.00000000E+00  0.00000000E+00  0.00000000E+00
  0.00000000E+00  0.00000000E+00  0.00000000E+00
