al
   1.00000000000000
      5.537892372358210     0.0000000000000000    0.0000000000000000
     0.0000000000000000    3.9840952319123812    0.0000000000000000
     0.0000000000000000   -0.0000000000000000    3.9840952319123812
   Al
     4
Direct
  0.0000000000000000  0.0000000000000000 -0.0000000000000000
  0.0000000000000000  0.5000000000000000  0.5000000000000000
  0.5000000000000000 -0.0000000000000000  0.5000000000000000
  0.5000000000000000  0.5000000000000000  0.0000000000000000
