Primitive Cell
  1.000000
    0.00000000000000    2.01694989205000    2.01694989205000
    2.01694989205000    0.00000000000000    2.01694989205000
    2.01694989205000    2.01694989205000    0.00000000000000
  Al
   1
DIRECT
    0.0000000000000000    0.0000000000000000    0.0000000000000000    Al1
