unit
1.0
        2.4458369975598391         0.0000000000         0.0000000000
        0.0000000000         5.422481851910857          0.0000000000
        0.0000000000         0.0000000000        15.0000000000
    C
    4
Direct
    -0.000000000         0.333333333333         0.500000000
     0.500000000         0.833333333333         0.500000000
     0.500000000         0.166666666666         0.500000000
    -0.000000000         0.666666666666         0.500000000
