igenerated by phonopy                   
   1.00000000000000     
     0.0000000000000000    1.9920476159561906    1.9920476159561906
     1.9920476159561906    0.0000000000000000    1.9920476159561906
     1.9920476159561906    1.9920476159561906    0.0000000000000000
   Al
     1
Direct
  0.0000000000000000  0.0000000000000000  0.0000000000000000
 
  0.00000000E+00  0.00000000E+00  0.00000000E+00
