Automatic kpoint scheme
0
Gamma
26 26 26 
