C1                                      
   1.00000000000000     
     2.4458369975598391    0.0000000000000000    0.0000000000000000
    -1.2229184987799195    2.1181569734807955    0.0000000000000000
     0.0000000000000000    0.0000000000000000   15.0000000000000000
   C 
     2
Direct
  0.0000000000000000  0.0000000000000000  0.2489999999999999
  0.3333333429999996  0.6666666870000029  0.2500000000000000
 
  0.00000000E+00  0.00000000E+00  0.00000000E+00
  0.00000000E+00  0.00000000E+00  0.00000000E+00
