##lammps  #交联两种破坏模式模拟--碳纳米管撕裂
units           metal
boundary        s  p  s   #s代表非周期性边界条件，p代表周期性边界条件
processors      4 3 2
atom_style      atomic
read_data         cnt_tear.txt
mass    		*    12.011
pair_style        airebo 3.0 1 0
pair_coeff   * *  CH_tensile.airebo  C
neighbor        2.0 nsq
neigh_modify delay 0 every 1 check yes

timestep     0.0005    #时间步0.5fs
region 1 block INF -2.5. INF INF INF INF units box   #分区域和组
region 2 block 76.3. INF INF INF INF INF units box
region 3 block INF INF INF INF -1. 1. units box
region 4 block INF INF INF INF 21. 22. units box
group 1 region 1 
group 2 region 2
group 3 region 3
group 4 region 4
group ld intersect 1 3    #区域分组--左下
group rd intersect 2 3    #区域分组--右下
group lu intersect 1 4    #区域分组--左上
group ru intersect 2 4    #区域分组--右上
group boundaryup union ru lu 
group gra1 type 1
group fixnvt subtract all boundaryup
compute gra1temp gra1 temp/com 
compute atompe all pe/atom
compute atomstress all stress/atom NULL
compute upz 4 reduce ave z   
compute downz 3 reduce ave z
variable disz equal c_upz-c_downz     #上下层石墨烯平均距离
variable rux  equal xcm(ru,x)         #右上区域石墨烯位置
variable vrux  equal vcm(ru,x)        #右上区域石墨烯速度
fix         1  all npt temp 300. 300. 0.05   y 0. 0. 0.5  drag 1.2
fix 2 ld  setforce 0.0 NULL 0.0    #左下及右下区域固定
fix 3 rd  setforce NULL NULL 0.0
fix 4 4  aveforce NULL NULL 0.0
thermo_style custom step temp pe etotal pyy ly v_rux v_vrux  v_disz
thermo           1000
dump            1 all custom 10000  cnt_tear.lammpstrj id type xs ys zs c_atompe c_atomstress[1] c_atomstress[2] c_atomstress[3] 
dump_modify 1  sort id
run             100000
unfix 1
unfix 4
fix         1  fixnvt nvt temp 300. 300. 0.05  
fix  5 boundaryup nve
fix  6  boundaryup aveforce NULL NULL 0.0
velocity ru set 0.1 0.0 0.0 sum no units box   #拉右上区域石墨烯，速度10 m/s
velocity lu set NULL NULL 0.0 sum no units box 
fix 4 ru  setforce 0. 0.0 NULL
thermo_style custom step temp pe etotal pyy ly c_gra1temp v_disz  v_rux v_vrux f_4[1]
thermo           1000
run 500000
