C1
1.0
        2.4639999866         0.0000000000         0.0000000000
       -1.2319999933         2.1338865834         0.0000000000
        0.0000000000         0.0000000000         15 
    C
   2 
Direct
     0.000000000         0.000000000         0.250000000
     0.333333343         0.666666687         0.250000000
