Repeated-UnitCell:     3    3    1      
   1.00000000000000     
     7.3375109926795172    0.0000000000000000    0.0000000000000000
    -3.6687554963397586    6.3544709204423864    0.0000000000000000
     0.0000000000000000    0.0000000000000000   15.0000000000000000
   C 
    17
Direct
  0.0000000000000000  0.0000000000000000  0.2500000000000000
  0.3370035113245045  0.0019128404118527  0.2500000000000000
  0.6649093588896705  0.0019128404118527  0.2500000000000000
 -0.0019128404118527  0.3350906709126517  0.2500000000000000
  0.3370035113245045  0.3350906709126517  0.2500000000000000
 -0.0019128404118527  0.6629965184778179  0.2500000000000000
  0.3333333432674408  0.6666666865348816  0.2500000000000000
  0.6649093588896705  0.6629965184778179  0.2500000000000000
  0.1108448284905319  0.2216896573144007  0.2500000000000000
  0.4386699979561519  0.2193349991776923  0.2500000000000000
  0.7806650306905255  0.2193349991776923  0.2500000000000000
  0.1127834755438334  0.5563917528726942  0.2500000000000000
  0.4436082769955239  0.5563917528726942  0.2500000000000000
  0.7806650306905255  0.5613300319120663  0.2500000000000000
  0.1108448284905319  0.8891552013776862  0.2500000000000000
  0.4436082769955239  0.8872165543243847  0.2500000000000000
  0.7783103725538176  0.8891552013776862  0.2500000000000000
 
  0.00000000E+00  0.00000000E+00  0.00000000E+00
  0.00000000E+00  0.00000000E+00  0.00000000E+00
  0.00000000E+00  0.00000000E+00  0.00000000E+00
  0.00000000E+00  0.00000000E+00  0.00000000E+00
  0.00000000E+00  0.00000000E+00  0.00000000E+00
  0.00000000E+00  0.00000000E+00  0.00000000E+00
  0.00000000E+00  0.00000000E+00  0.00000000E+00
  0.00000000E+00  0.00000000E+00  0.00000000E+00
  0.00000000E+00  0.00000000E+00  0.00000000E+00
  0.00000000E+00  0.00000000E+00  0.00000000E+00
  0.00000000E+00  0.00000000E+00  0.00000000E+00
  0.00000000E+00  0.00000000E+00  0.00000000E+00
  0.00000000E+00  0.00000000E+00  0.00000000E+00
  0.00000000E+00  0.00000000E+00  0.00000000E+00
  0.00000000E+00  0.00000000E+00  0.00000000E+00
  0.00000000E+00  0.00000000E+00  0.00000000E+00
  0.00000000E+00  0.00000000E+00  0.00000000E+00
