Repeated-UnitCell:     3    3    1
 1.000000
    7.3375109926795172    0.0000000000000000    0.0000000000000000
   -3.6687554963397586    6.3544709204423864    0.0000000000000000
    0.0000000000000000    0.0000000000000000   15.0000000000000000
   C 
   17
 Direct
    0.0000000000000000    0.0000000000000000    0.2500000000000000      C1
    0.3333333432674408    0.0000000000000000    0.2500000000000000      C2
    0.6666666865348816    0.0000000000000000    0.2500000000000000      C3
    0.0000000000000000    0.3333333432674408    0.2500000000000000      C4
    0.3333333432674408    0.3333333432674408    0.2500000000000000      C5
    0.0000000000000000    0.6666666865348816    0.2500000000000000      C7
    0.3333333432674408    0.6666666865348816    0.2500000000000000      C8
    0.6666666865348816    0.6666666865348816    0.2500000000000000      C9
    0.1111111143333332    0.2222222290000010    0.2500000000000000     C10
    0.4444444576007740    0.2222222290000010    0.2500000000000000     C11
    0.7777778008682148    0.2222222290000010    0.2500000000000000     C12
    0.1111111143333332    0.5555555722674418    0.2500000000000000     C13
    0.4444444576007740    0.5555555722674418    0.2500000000000000     C14
    0.7777778008682148    0.5555555722674418    0.2500000000000000     C15
    0.1111111143333332    0.8888889155348826    0.2500000000000000     C16
    0.4444444576007740    0.8888889155348826    0.2500000000000000     C17
    0.7777778008682148    0.8888889155348826    0.2500000000000000     C18
