igenerated by phonopy
   1.0
     0.0000000000000000    2.0169498920500000    2.0169498920500000
     2.0169498920500000    0.0000000000000000    2.0169498920500000
     2.0169498920500000    2.0169498920500000    0.0000000000000000
Al
   1
Direct
  0.0000000000000000  0.0000000000000000  0.0000000000000000

