unit
1.0
         2.543670477462233         0.0000000000         0.0000000000
        0.0000000000         4.236313946805357         0.0000000000
        0.0000000000         0.0000000000        15.0000000000
    C
    4
Direct
    -0.000000000         0.333333333333         0.500000000
     0.500000000         0.833333333333         0.500000000
     0.500000000         0.166666666666         0.500000000
    -0.000000000         0.666666666666         0.500000000
